tutorial_examples/linear_programming/lp_ex1.mps
NAME          COPTPROB
OBJSENSE
    MAX
ROWS
 N  __OBJ___
 L  R0000000
 G  R0000001
COLUMNS
    x         __OBJ___  1.2
    x         R0000000  1.5
    x         R0000001  0.80000000000000004
    y         __OBJ___  1.8
    y         R0000000  1.2
    y         R0000001  0.59999999999999998
    z         __OBJ___  2.1000000000000001
    z         R0000000  1.8
    z         R0000001  0.90000000000000002
RHS
    RHS       R0000000  2.6000000000000001
    RHS       R0000001  1.2
BOUNDS
 LO BOUND     x         0.10000000000000001
 UP BOUND     x         0.59999999999999998
 LO BOUND     y         0.20000000000000001
 UP BOUND     y         1.5
 LO BOUND     z         0.29999999999999999
 UP BOUND     z         2.7999999999999998
ENDATA
