baojiali/tutorial_examples/lp_ex1.sol
# Objective value 3.578333333333334
x         0.10000000000000001
y         1.5
z         0.36111111111111133
